##TITLE= List of Points
##JCAMPDX= 5.0
##DATA TYPE= LINK
##BLOCKS= 1	$$ is the number of fits or point lists
##ORIGIN= Bruker BioSpin GmbH
##OWNER= monteg3
$$ 2026-01-23 23:46:09.416 -0500  monteg3@mohawk.biotech.rpi.edu
$$ /opt/nmrdata/data/monteg3/ADF_TR_Nirmat400-Mpro400_2026-01-23/50/pdata/1/t1t2.dx
##XUNITS= sec
##YUNITS= a.u.
##MINX=   5.000000e-02
##MAXX=   2.000000e+01
##MINY=  -7.951826e-01
##MAXY=   1.000000e+00
##TITLE= Peak No. 2 at -65.952 ppm, t1/t2, I[0] =  9.874e-01, P = -1.871e+00, T =    1.573s
##JCAMP-DX= 5.0
##DATA TYPE= Relaxation Data
$$
##$FITFKT= t1/t2(  9.873962e-01,  -1.870623e+00,   1.572832e+00)
$$
##NPOINTS= 12
##XYPOINTS= (XY..XY)
  4.000000e+00,  8.491330e-01
  5.000000e-02, -7.951826e-01
  1.000000e-01, -7.661855e-01
  2.500000e-01, -6.525676e-01
  5.000000e-01, -3.720370e-01
  1.000000e+00,  3.798528e-03
  2.000000e+00,  4.732284e-01
  3.000000e+00,  7.128523e-01
  4.000000e+00,  8.211744e-01
  8.000000e+00,  9.667484e-01
  1.400000e+01,  1.000000e+00
  2.000000e+01,  9.846982e-01
##END= $$ End of List for Peak No. 2
##END= $$ End of List of Points
