##TITLE= List of Points
##JCAMPDX= 5.0
##DATA TYPE= LINK
##BLOCKS= 1	$$ is the number of fits or point lists
##ORIGIN= Bruker BioSpin GmbH
##OWNER= ramelt2
$$ 2026-05-19 09:21:26.982 -0400  ramelt2@valine-37.dynamic2.rpi.edu
$$ /Users/ramelt2/Library/CloudStorage/Box-Box/Montelione-Lab-Box/MPro_NMR_and_MS_data_and_analysis/MPro-Nirmatrelvir_19F-NMR/Mohawk-600-EDTA-Mpro-2026-04/ADF_Nirmat-Mpro_EDTA_288K_2D-19F-EXSY_2026-05-07/550/pdata/1/t1t2.dx
##XUNITS= sec
##YUNITS= a.u.
##MINX=   5.000000e-02
##MAXX=   2.000000e+01
##MINY=  -8.233077e-01
##MAXY=   1.000000e+00
##TITLE= Peak No. 2 at -65.952 ppm, t1/t2, I[0] =  9.916e-01, P = -1.879e+00, T =    1.450s
##JCAMP-DX= 5.0
##DATA TYPE= Relaxation Data
$$
##$FITFKT= t1/t2(  9.916249e-01,  -1.878887e+00,   1.449570e+00)
$$
##NPOINTS= 11
##XYPOINTS= (XY..XY)
  4.000000e+00,  8.751751e-01
  5.000000e-02, -8.233077e-01
  1.000000e-01, -7.667328e-01
  2.500000e-01, -5.827662e-01
  5.000000e-01, -3.408243e-01
  2.000000e+00,  5.155287e-01
  3.000000e+00,  7.550558e-01
  4.000000e+00,  8.766962e-01
  8.000000e+00,  9.629256e-01
  1.400000e+01,  9.996567e-01
  2.000000e+01,  1.000000e+00
##END= $$ End of List for Peak No. 2
##END= $$ End of List of Points
